Gurobi Optimizer version 9.1.2 build v9.1.2rc0 (linux64)
Thread count: 36 physical cores, 72 logical processors, using up to 32 threads
Optimize a model with 12 rows, 57 columns and 590 nonzeros
Model fingerprint: 0xf32eec78
Model has 47 quadratic constraints
Coefficient statistics:
  Matrix range     [2e-05, 3e+00]
  QMatrix range    [1e+00, 1e+00]
  QLMatrix range   [1e+00, 1e+00]
  Objective range  [8e-03, 7e-01]
  Bounds range     [1e+00, 1e+00]
  RHS range        [1e+00, 1e+00]
Presolve removed 9 rows and 0 columns

Continuous model is non-convex -- solving as a MIP.

Presolve removed 9 rows and 0 columns
Presolve time: 0.00s
Presolved: 189 rows, 57 columns, 443 nonzeros
Presolved model has 47 bilinear constraint(s)
Variable types: 57 continuous, 0 integer (0 binary)

Root relaxation: objective -1.743721e+00, 44 iterations, 0.00 seconds

    Nodes    |    Current Node    |     Objective Bounds      |     Work
 Expl Unexpl |  Obj  Depth IntInf | Incumbent    BestBd   Gap | It/Node Time

     0     0   -1.74372    0   38          -   -1.74372      -     -    0s
H    0     0                       0.6147548   -1.74372   384%     -    0s
     0     0   -1.64739    0    1    0.61475   -1.64739   368%     -    0s
H    0     0                      -1.6450460   -1.64739  0.14%     -    0s
     0     0     cutoff    0        -1.64505   -1.64505  0.00%     -    0s

Cutting planes:
  RLT: 25
  BQP: 3

Explored 1 nodes (76 simplex iterations) in 0.01 seconds
Thread count was 32 (of 72 available processors)

Solution count 2: -1.64505 0.614755 
No other solutions better than -1.64505

Optimal solution found (tolerance 1.00e-04)
Best objective -1.645045978473e+00, best bound -1.645045978473e+00, gap 0.0000%

User-callback calls 78, time in user-callback 0.00 sec
Gurobi Optimizer version 9.1.2 build v9.1.2rc0 (linux64)
Thread count: 36 physical cores, 72 logical processors, using up to 32 threads
Optimize a model with 24 rows, 125 columns and 2580 nonzeros
Model fingerprint: 0x81b93047
Model has 105 quadratic constraints
Coefficient statistics:
  Matrix range     [6e-06, 5e+01]
  QMatrix range    [1e+00, 1e+00]
  QLMatrix range   [1e+00, 1e+00]
  Objective range  [2e-02, 2e+00]
  Bounds range     [1e+00, 1e+00]
  RHS range        [1e+00, 1e+00]
Presolve removed 11 rows and 0 columns

Continuous model is non-convex -- solving as a MIP.

Presolve removed 11 rows and 0 columns
Presolve time: 0.00s
Presolved: 428 rows, 125 columns, 2018 nonzeros
Presolved model has 105 bilinear constraint(s)
Variable types: 125 continuous, 0 integer (0 binary)

Root relaxation: objective -8.828937e+00, 142 iterations, 0.00 seconds

    Nodes    |    Current Node    |     Objective Bounds      |     Work
 Expl Unexpl |  Obj  Depth IntInf | Incumbent    BestBd   Gap | It/Node Time

     0     0   -8.82894    0   57          -   -8.82894      -     -    0s
H    0     0                      -0.5954260   -8.82894  1383%     -    0s
     0     0   -6.91531    0   95   -0.59543   -6.91531  1061%     -    0s
H    0     0                      -1.1059751   -6.91531   525%     -    0s
     0     0   -6.87862    0   95   -1.10598   -6.87862   522%     -    0s
     0     0   -6.40708    0   70   -1.10598   -6.40708   479%     -    0s
H    0     0                      -2.7547205   -6.40708   133%     -    0s
     0     0   -6.40502    0   70   -2.75472   -6.40502   133%     -    0s
     0     0   -6.30473    0   70   -2.75472   -6.30473   129%     -    0s
     0     0   -6.29805    0   70   -2.75472   -6.29805   129%     -    0s
     0     0   -6.27576    0   70   -2.75472   -6.27576   128%     -    0s
     0     0   -6.27389    0   70   -2.75472   -6.27389   128%     -    0s
     0     0   -6.26861    0   70   -2.75472   -6.26861   128%     -    0s
     0     0   -6.26785    0   70   -2.75472   -6.26785   128%     -    0s
     0     0   -6.26740    0   70   -2.75472   -6.26740   128%     -    0s
H    0     0                      -2.9596070   -6.26740   112%     -    0s
H    0     0                      -4.3168198   -6.26740  45.2%     -    0s
H    0     0                      -4.4577731   -6.26740  40.6%     -    0s
H    0     0                      -4.4661505   -6.26740  40.3%     -    0s
     0     2   -6.26740    0   70   -4.46615   -6.26740  40.3%     -    0s
*  667   530              22      -4.6324186   -5.70828  23.2%  28.9    0s
*  802   620              30      -4.7805184   -5.70828  19.4%  26.7    0s
*  867   726              27      -5.1276745   -5.70828  11.3%  25.4    0s
* 1059   766              29      -5.1323212   -5.70828  11.2%  23.9    0s
* 1060   766              27      -5.1344616   -5.70828  11.2%  23.9    0s
* 1365   958              22      -5.2513844   -5.59896  6.62%  21.1    0s
* 1461   958              30      -5.2649940   -5.59896  6.34%  20.2    0s
* 1594   968              20      -5.2670930   -5.44114  3.30%  19.1    0s
* 1675   968              31      -5.2698451   -5.44114  3.25%  18.4    0s
* 1676   968              31      -5.2699003   -5.44114  3.25%  18.4    0s
* 1708   968              27      -5.2810346   -5.44114  3.03%  18.2    0s
* 1799   968              20      -5.2889870   -5.44114  2.88%  17.5    0s
* 1810   968              20      -5.2890184   -5.44114  2.88%  17.4    0s
* 1812   968              21      -5.2890262   -5.44114  2.88%  17.4    0s
* 1814   968              22      -5.2890264   -5.44114  2.88%  17.4    0s
* 1819   968              20      -5.2890328   -5.44114  2.88%  17.3    0s
* 1961   750              21      -5.2894547   -5.29452  0.10%  16.3    0s
* 1969   750              22      -5.2911041   -5.29452  0.06%  16.3    0s
* 1971   750              23      -5.2912775   -5.29452  0.06%  16.3    0s
* 1973   750              21      -5.2915409   -5.29452  0.06%  16.2    0s
* 2055   750              24      -5.2916199   -5.29452  0.05%  15.7    0s
* 2056   750              24      -5.2917625   -5.29452  0.05%  15.7    0s
* 2270   295              16      -5.2917648   -5.29356  0.03%  14.3    0s
* 2369   295              22      -5.2917656   -5.29180  0.00%  13.7    0s

Cutting planes:
  RLT: 64
  BQP: 5
  PSD: 55

Explored 2687 nodes (32941 simplex iterations) in 0.65 seconds
Thread count was 32 (of 72 available processors)

Solution count 10: -5.29177 -5.29176 -5.29176 ... -5.28903
No other solutions better than -5.29177

Optimal solution found (tolerance 1.00e-04)
Best objective -5.291765623361e+00, best bound -5.291765623361e+00, gap 0.0000%

User-callback calls 5668, time in user-callback 0.00 sec



objective value: -5.2917656233611
objective bound: -5.2917656233611
x_opt: [1.0, 0.0, 1.0, 0.0, 0.20372517612369748, 0.0, 1.0, 1.0, 0.4475441768553464, 0.0, 0.0, 0.0, 0.804990641900213, 0.0, 0.455552387789067, 0.32210330713824886, 0.0, 0.0, 0.0, 0.0]
GUROBI solution time: 0.6462979316711426




